solution status: optimal solution found
objective value:                                   37
x21                                                 1 	(obj:1)
x22                                                 1 	(obj:1)
x23                                                 1 	(obj:1)
x24                                                 1 	(obj:1)
x25                                                 1 	(obj:1)
x27                                                 1 	(obj:1)
x28                                                 1 	(obj:1)
x31                                                 1 	(obj:1)
x32                                                 1 	(obj:1)
x33                                                 1 	(obj:1)
x37                                                 1 	(obj:1)
x38                                                 1 	(obj:1)
x39                                                 1 	(obj:1)
x40                                                 1 	(obj:1)
x42                                                 1 	(obj:1)
x43                                                 1 	(obj:1)
x44                                                 1 	(obj:1)
x47                                                 1 	(obj:1)
x48                                                 1 	(obj:1)
x49                                                 1 	(obj:1)
x50                                                 1 	(obj:1)
x51                                                 1 	(obj:1)
x52                                                 1 	(obj:1)
x55                                                 1 	(obj:1)
x56                                                 1 	(obj:1)
x57                                                 1 	(obj:1)
x59                                                 1 	(obj:1)
x60                                                 1 	(obj:1)
x62                                                 1 	(obj:1)
x63                                                 1 	(obj:1)
x64                                                 1 	(obj:1)
x65                                                 1 	(obj:1)
x66                                                 1 	(obj:1)
x67                                                 1 	(obj:1)
x68                                                 1 	(obj:1)
x69                                                 1 	(obj:1)
x70                                                 1 	(obj:1)
one.thingy.devices[3].thingy.vp0_y                    5 	(obj:0)
one.thingy.devices[3].thingy.vp0_z                    1 	(obj:0)
one.thingy.devices[0].thingy.vp3_y                   -2 	(obj:0)
one.thingy.devices[0].thingy.vp3_z                    5 	(obj:0)
one.thingy.devices[1].thingy.vp0_y                    2 	(obj:0)
one.thingy.devices[1].thingy.vp0_z                    8 	(obj:0)
one.ctrl_s[1].flush_y                               2 	(obj:0)
one.ctrl_s[1].flush_z                              -3 	(obj:0)
one.thingy.devices[3].thingy.vp3_y                    6 	(obj:0)
one.thingy.devices[3].thingy.vp3_z                    1 	(obj:0)
one.thingy.devices[0].thingy.vp0_y                   -1 	(obj:0)
one.thingy.devices[0].thingy.vp0_z                    7 	(obj:0)
one.thingy.devices[2].thingy.vp3_y                    3 	(obj:0)
one.thingy.devices[2].thingy.vp3_z                    4 	(obj:0)
one.thingy.devices[1].thingy.vp3_y                    1 	(obj:0)
one.thingy.devices[1].thingy.vp3_z                    5 	(obj:0)
one.ctrl_s[1].hole_y                               -6 	(obj:0)
one.ctrl_s[1].hole_z                                1 	(obj:0)
one.thingy.devices[2].thingy.vp0_y                    6 	(obj:0)
one.thingy.devices[2].thingy.vp0_z                    4 	(obj:0)
